NAME          
ROWS
 N  OBJ
 L  c1
COLUMNS
    MARKER    'MARKER'                 'INTORG'
    x[1]      c1        517
    x[1]      OBJ       -552
    x[2]      c1        261
    x[2]      OBJ       -173
    x[3]      c1        527
    x[3]      OBJ       -620
    x[4]      c1        333
    x[4]      OBJ       -370
    x[5]      c1        112
    x[5]      OBJ       -153
    x[6]      c1        527
    x[6]      OBJ       -434
    x[7]      c1        350
    x[7]      OBJ       -282
    x[8]      c1        567
    x[8]      OBJ       -659
    x[9]      c1        764
    x[9]      OBJ       -765
    x[10]     c1        332
    x[10]     OBJ       -362
    x[11]     c1        1011
    x[11]     OBJ       -972
    x[12]     c1        931
    x[12]     OBJ       -909
    x[13]     c1        1046
    x[13]     OBJ       -989
    x[14]     c1        735
    x[14]     OBJ       -799
    x[15]     c1        909
    x[15]     OBJ       -888
    x[16]     c1        670
    x[16]     OBJ       -735
    x[17]     c1        386
    x[17]     OBJ       -343
    x[18]     c1        344
    x[18]     OBJ       -442
    x[19]     c1        274
    x[19]     OBJ       -231
    x[20]     c1        866
    x[20]     OBJ       -826
    x[21]     c1        249
    x[21]     OBJ       -229
    x[22]     c1        416
    x[22]     OBJ       -343
    x[23]     c1        1040
    x[23]     OBJ       -954
    x[24]     c1        809
    x[24]     OBJ       -902
    x[25]     c1        689
    x[25]     OBJ       -773
    x[26]     c1        1032
    x[26]     OBJ       -997
    x[27]     c1        751
    x[27]     OBJ       -803
    x[28]     c1        157
    x[28]     OBJ       -125
    x[29]     c1        717
    x[29]     OBJ       -798
    x[30]     c1        916
    x[30]     OBJ       -981
    x[31]     c1        890
    x[31]     OBJ       -941
    x[32]     c1        931
    x[32]     OBJ       -939
    x[33]     c1        653
    x[33]     OBJ       -615
    x[34]     c1        846
    x[34]     OBJ       -776
    x[35]     c1        194
    x[35]     OBJ       -265
    x[36]     c1        457
    x[36]     OBJ       -399
    x[37]     c1        476
    x[37]     OBJ       -513
    x[38]     c1        101
    x[38]     OBJ       -131
    x[39]     c1        598
    x[39]     OBJ       -631
    x[40]     c1        801
    x[40]     OBJ       -735
    x[41]     c1        373
    x[41]     OBJ       -381
    x[42]     c1        580
    x[42]     OBJ       -635
    x[43]     c1        301
    x[43]     OBJ       -350
    x[44]     c1        836
    x[44]     OBJ       -812
    x[45]     c1        738
    x[45]     OBJ       -771
    x[46]     c1        104
    x[46]     OBJ       -47
    x[47]     c1        212
    x[47]     OBJ       -234
    x[48]     c1        779
    x[48]     OBJ       -814
    x[49]     c1        316
    x[49]     OBJ       -381
    x[50]     c1        659
    x[50]     OBJ       -716
RHS
    rhs       c1        14542
RANGES
BOUNDS
 BV bounds    x[1]
 BV bounds    x[2]
 BV bounds    x[3]
 BV bounds    x[4]
 BV bounds    x[5]
 BV bounds    x[6]
 BV bounds    x[7]
 BV bounds    x[8]
 BV bounds    x[9]
 BV bounds    x[10]
 BV bounds    x[11]
 BV bounds    x[12]
 BV bounds    x[13]
 BV bounds    x[14]
 BV bounds    x[15]
 BV bounds    x[16]
 BV bounds    x[17]
 BV bounds    x[18]
 BV bounds    x[19]
 BV bounds    x[20]
 BV bounds    x[21]
 BV bounds    x[22]
 BV bounds    x[23]
 BV bounds    x[24]
 BV bounds    x[25]
 BV bounds    x[26]
 BV bounds    x[27]
 BV bounds    x[28]
 BV bounds    x[29]
 BV bounds    x[30]
 BV bounds    x[31]
 BV bounds    x[32]
 BV bounds    x[33]
 BV bounds    x[34]
 BV bounds    x[35]
 BV bounds    x[36]
 BV bounds    x[37]
 BV bounds    x[38]
 BV bounds    x[39]
 BV bounds    x[40]
 BV bounds    x[41]
 BV bounds    x[42]
 BV bounds    x[43]
 BV bounds    x[44]
 BV bounds    x[45]
 BV bounds    x[46]
 BV bounds    x[47]
 BV bounds    x[48]
 BV bounds    x[49]
 BV bounds    x[50]
ENDATA
